Route #1: 57 94 64 105 69 17 2 77 67
Route #2: 96 29 72 34 11 99 74
Route #3: 82 63 31 40 13 54 85 21 49
Route #4: 5 104 1 76 60 51 100 45
Route #5: 87 43 97 93 28 101 103 53
Route #6: 83 48 8 36 91 88 58 14
Route #7: 44 15 12 9 84 75 7
Route #8: 62 26 90 24 102 92 52
Route #9: 33 22
Route #10: 66 46 71 79 37 27 19 78
Route #11: 86 18 41 10 16 20 56
Route #12: 59 89 30 42 23 3 32 73 35
Route #13: 55 98 4 70 6 81 50 39
Route #14: 68 95 38 65 80 61 47 25
Cost 26387
